p cnf 41 122
a 32 2 0
e 1 3 4 5 6 7 8 9 10 11 12 13 14 15 16 17 18 19 20 21 22 23 24 25 26 27 28 29 30 31 33 34 35 36 37 38 39 40 41 0
1 -2 -3 0
-1 2 -3 0
1 2 3 0
-1 -2 3 0
4 -5 -6 0
-4 5 -6 0
4 5 6 0
-4 -5 6 0
-3 -6 -7 0
3 6 -7 0
-3 6 7 0
3 -6 7 0
-8 -4 0
-8 5 0
4 -5 8 0
-9 -6 0
-9 8 0
6 -8 9 0
-10 9 0
-10 -5 0
-9 5 10 0
-11 -7 0
-11 10 0
7 -10 11 0
-12 1 0
-12 6 0
-1 -6 12 0
-13 12 0
-13 -5 0
-12 5 13 0
-14 11 0
-14 13 0
-11 -13 14 0
-16 -5 0
-16 -1 0
5 1 16 0
17 -15 0
17 16 0
15 -16 -17 0
-1 -8 -18 0
1 8 -18 0
-1 8 18 0
1 -8 18 0
-20 19 0
-20 3 0
-19 -3 20 0
-21 20 0
-21 -8 0
-20 8 21 0
-22 18 0
-22 21 0
-18 -21 22 0
-23 -17 0
-23 22 0
17 -22 23 0
24 -14 0
24 -23 0
14 23 -24 0
-25 -5 0
-25 19 0
5 -19 25 0
-25 8 -26 0
25 -8 -26 0
-25 -8 26 0
25 8 26 0
8 26 -27 0
-8 -26 -27 0
8 -26 27 0
-8 26 27 0
-28 7 0
-28 -19 0
-7 19 28 0
-29 -4 0
-29 -28 0
4 28 29 0
-31 30 0
-31 -1 0
-30 1 31 0
-31 5 -32 0
31 -5 -32 0
-31 -5 32 0
31 5 32 0
29 32 -33 0
-29 -32 -33 0
29 -32 33 0
-29 32 33 0
-34 27 0
-34 -33 0
-27 33 34 0
-35 -24 0
-35 34 0
24 -34 35 0
36 -15 -37 0
-36 15 -37 0
36 15 37 0
-36 -15 37 0
-35 -37 -38 0
35 37 -38 0
-35 37 38 0
35 -37 38 0
20 -25 -39 0
-20 25 -39 0
20 25 39 0
-20 -25 39 0
40 1 0
40 39 0
-1 -39 -40 0
41 -38 0
41 -40 0
38 40 -41 0
26 -31 3 -17 -27 0
8 -36 35 -30 12 0
-9 31 13 7 38 0
39 -36 -9 -10 0
-17 24 -27 35 41 -23 8 0
19 -3 22 26 25 37 -20 0
6 1 21 35 -11 -41 0
16 -33 30 24 -7 -29 2 0
-40 27 2 -25 -20 0
28 -32 18 -15 -16 0
9 2 -35 -37 10 15 -19 0
41 0
